c ind 10 13 131 133 135 137 139 141 143 145 0
c ind 182 185 197 199 201 203 205 207 209 211 0
c ind 22 228 229 23 233 234 239 240 249 25 0
c ind 250 259 260 269 27 270 279 280 289 29 0
c ind 290 298 301 31 312 313 317 318 323 324 0
c ind 33 333 334 343 344 35 353 354 363 364 0
c ind 37 373 374 390 392 394 396 398 400 402 0
c ind 404 46 49 5 571 578 6 604 607 622 0
c ind 624 626 628 630 632 634 636 64 645 647 0
c ind 649 651 653 655 657 659 66 68 682 685 0
c ind 70 700 702 704 706 708 710 712 714 72 0
c ind 723 725 727 729 731 733 735 737 74 76 0
c ind 760 763 778 78 780 782 784 786 788 790 0
c ind 792 801 803 805 807 809 811 813 815 842 0
c ind 844 846 848 850 852 854 856 869 871 873 0
c ind 875 877 879 88 881 883 9 0
p cnf 903 2735
-1 -2 11 0
-1 2 123 0
-100 -23 70 0
-100 -70 23 0
-101 -23 72 0
-101 -72 23 0
-102 -23 74 0
-102 -74 23 0
-103 -23 76 0
-103 -76 23 0
-104 -23 78 0
-104 -78 23 0
-105 -106 23 0
-105 106 114 0
-106 107 0
-106 77 0
-107 108 0
-107 75 0
-108 109 0
-108 73 0
-109 110 0
-109 71 0
-11 -12 14 0
-11 12 38 0
-110 111 0
-110 69 0
-111 112 0
-111 67 0
-112 113 0
-112 65 0
-113 -13 64 0
-113 -64 13 0
-114 -115 23 0
-114 115 90 0
-115 116 0
-115 77 0
-116 117 0
-116 75 0
-117 118 0
-117 73 0
-118 119 0
-118 71 0
-119 120 0
-119 69 0
-12 -13 5 0
-12 -5 13 0
-120 121 0
-120 67 0
-121 122 0
-121 63 0
-122 -13 66 0
-122 -66 13 0
-123 124 0
-123 144 0
-124 125 0
-124 142 0
-125 126 0
-125 140 0
-126 127 0
-126 138 0
-127 128 0
-127 136 0
-128 129 0
-128 134 0
-129 130 0
-129 132 0
-130 -131 22 0
-130 -22 131 0
-132 -133 25 0
-132 -25 133 0
-134 -135 27 0
-134 -27 135 0
-136 -137 29 0
-136 -29 137 0
-138 -139 31 0
-138 -31 139 0
-14 15 0
-14 36 0
-140 -141 33 0
-140 -33 141 0
-142 -143 35 0
-142 -35 143 0
-144 -145 37 0
-144 -37 145 0
-146 -147 14 0
-146 147 162 0
-147 -43 148 0
-147 43 152 0
-148 -51 23 0
-148 51 149 0
-149 -53 150 0
-149 53 152 0
-15 16 0
-15 34 0
-150 -56 151 0
-150 56 160 0
-151 -80 13 0
-151 80 152 0
-152 104 0
-152 153 0
-153 103 0
-153 154 0
-154 102 0
-154 155 0
-155 101 0
-155 156 0
-156 100 0
-156 157 0
-157 158 0
-157 99 0
-158 159 0
-158 98 0
-159 -13 64 0
-159 -64 13 0
-16 17 0
-16 32 0
-160 -106 23 0
-160 106 161 0
-161 -115 23 0
-161 115 152 0
-162 -163 178 0
-162 163 123 0
-163 -43 164 0
-163 43 168 0
-164 -51 23 0
-164 51 165 0
-165 -53 166 0
-165 53 168 0
-166 -56 167 0
-166 56 176 0
-167 -80 23 0
-167 80 168 0
-168 104 0
-168 169 0
-169 103 0
-169 170 0
-17 18 0
-17 30 0
-170 102 0
-170 171 0
-171 101 0
-171 172 0
-172 100 0
-172 173 0
-173 174 0
-173 99 0
-174 175 0
-174 97 0
-175 -13 66 0
-175 -66 13 0
-176 -106 13 0
-176 106 177 0
-177 -115 13 0
-177 115 168 0
-178 -179 186 0
-178 179 565 0
-179 -43 180 0
-179 43 181 0
-18 19 0
-18 28 0
-180 -51 181 0
-180 51 183 0
-181 -13 182 0
-181 -182 13 0
-183 -53 184 0
-183 53 181 0
-184 -13 185 0
-184 -185 13 0
-186 -187 380 0
-186 187 442 0
-187 -43 188 0
-187 43 189 0
-188 -51 189 0
-188 51 212 0
-189 190 0
-189 210 0
-19 20 0
-19 26 0
-190 191 0
-190 208 0
-191 192 0
-191 206 0
-192 193 0
-192 204 0
-193 194 0
-193 202 0
-194 195 0
-194 200 0
-195 196 0
-195 198 0
-196 -197 23 0
-196 -23 197 0
-198 -199 23 0
-198 -23 199 0
-2 3 7 0
-20 21 0
-20 24 0
-200 -201 23 0
-200 -23 201 0
-202 -203 23 0
-202 -23 203 0
-204 -205 23 0
-204 -23 205 0
-206 -207 23 0
-206 -23 207 0
-208 -209 23 0
-208 -23 209 0
-21 -22 23 0
-21 -23 22 0
-210 -211 23 0
-210 -23 211 0
-212 -53 213 0
-212 53 189 0
-213 -56 189 0
-213 56 214 0
-214 -106 189 0
-214 106 215 0
-215 -115 216 0
-215 115 189 0
-216 -217 218 0
-216 217 296 0
-217 -13 182 0
-217 -182 13 0
-218 219 0
-218 286 0
-219 220 0
-219 276 0
-220 221 0
-220 266 0
-221 222 0
-221 256 0
-222 223 0
-222 246 0
-223 224 0
-223 236 0
-224 225 0
-224 230 0
-225 -226 23 0
-225 -23 226 0
-226 -227 -23 0
-226 227 23 0
-227 -228 -229 0
-227 228 229 0
-23 0
-230 -23 231 0
-230 -231 23 0
-231 -232 -235 0
-231 232 235 0
-232 -233 -234 0
-232 233 234 0
-235 228 0
-235 229 0
-236 -23 237 0
-236 -237 23 0
-237 -238 -241 0
-237 238 241 0
-238 -239 -240 0
-238 239 240 0
-24 -23 25 0
-24 -25 23 0
-241 242 245 0
-242 243 244 0
-243 233 0
-243 234 0
-244 234 0
-244 235 0
-245 233 0
-245 235 0
-246 -23 247 0
-246 -247 23 0
-247 -248 -251 0
-247 248 251 0
-248 -249 -250 0
-248 249 250 0
-251 252 255 0
-252 253 254 0
-253 239 0
-253 240 0
-254 240 0
-254 241 0
-255 239 0
-255 241 0
-256 -23 257 0
-256 -257 23 0
-257 -258 -261 0
-257 258 261 0
-258 -259 -260 0
-258 259 260 0
-26 -23 27 0
-26 -27 23 0
-261 262 265 0
-262 263 264 0
-263 249 0
-263 250 0
-264 250 0
-264 251 0
-265 249 0
-265 251 0
-266 -23 267 0
-266 -267 23 0
-267 -268 -271 0
-267 268 271 0
-268 -269 -270 0
-268 269 270 0
-271 272 275 0
-272 273 274 0
-273 259 0
-273 260 0
-274 260 0
-274 261 0
-275 259 0
-275 261 0
-276 -23 277 0
-276 -277 23 0
-277 -278 -281 0
-277 278 281 0
-278 -279 -280 0
-278 279 280 0
-28 -23 29 0
-28 -29 23 0
-281 282 285 0
-282 283 284 0
-283 269 0
-283 270 0
-284 270 0
-284 271 0
-285 269 0
-285 271 0
-286 -23 287 0
-286 -287 23 0
-287 -288 -291 0
-287 288 291 0
-288 -289 -290 0
-288 289 290 0
-291 292 295 0
-292 293 294 0
-293 279 0
-293 280 0
-294 280 0
-294 281 0
-295 279 0
-295 281 0
-296 -297 299 0
-296 297 189 0
-297 -13 298 0
-297 -298 13 0
-299 -300 189 0
-299 300 302 0
-3 -4 0
-30 -23 31 0
-30 -31 23 0
-300 -13 301 0
-300 -301 13 0
-302 303 0
-302 370 0
-303 304 0
-303 360 0
-304 305 0
-304 350 0
-305 306 0
-305 340 0
-306 307 0
-306 330 0
-307 308 0
-307 320 0
-308 309 0
-308 314 0
-309 -23 310 0
-309 -310 23 0
-310 -311 -23 0
-310 311 23 0
-311 -312 -313 0
-311 312 313 0
-314 -23 315 0
-314 -315 23 0
-315 -316 -319 0
-315 316 319 0
-316 -317 -318 0
-316 317 318 0
-319 312 0
-319 313 0
-32 -23 33 0
-32 -33 23 0
-320 -23 321 0
-320 -321 23 0
-321 -322 -325 0
-321 322 325 0
-322 -323 -324 0
-322 323 324 0
-325 326 329 0
-326 327 328 0
-327 317 0
-327 318 0
-328 318 0
-328 319 0
-329 317 0
-329 319 0
-330 -23 331 0
-330 -331 23 0
-331 -332 -335 0
-331 332 335 0
-332 -333 -334 0
-332 333 334 0
-335 336 339 0
-336 337 338 0
-337 323 0
-337 324 0
-338 324 0
-338 325 0
-339 323 0
-339 325 0
-34 -23 35 0
-34 -35 23 0
-340 -23 341 0
-340 -341 23 0
-341 -342 -345 0
-341 342 345 0
-342 -343 -344 0
-342 343 344 0
-345 346 349 0
-346 347 348 0
-347 333 0
-347 334 0
-348 334 0
-348 335 0
-349 333 0
-349 335 0
-350 -23 351 0
-350 -351 23 0
-351 -352 -355 0
-351 352 355 0
-352 -353 -354 0
-352 353 354 0
-355 356 359 0
-356 357 358 0
-357 343 0
-357 344 0
-358 344 0
-358 345 0
-359 343 0
-359 345 0
-36 -23 37 0
-36 -37 23 0
-360 -23 361 0
-360 -361 23 0
-361 -362 -365 0
-361 362 365 0
-362 -363 -364 0
-362 363 364 0
-365 366 369 0
-366 367 368 0
-367 353 0
-367 354 0
-368 354 0
-368 355 0
-369 353 0
-369 355 0
-370 -23 371 0
-370 -371 23 0
-371 -372 -375 0
-371 372 375 0
-372 -373 -374 0
-372 373 374 0
-375 376 379 0
-376 377 378 0
-377 363 0
-377 364 0
-378 364 0
-378 365 0
-379 363 0
-379 365 0
-38 -39 41 0
-38 39 123 0
-380 -43 381 0
-380 43 382 0
-381 -51 382 0
-381 51 405 0
-382 383 0
-382 403 0
-383 384 0
-383 401 0
-384 385 0
-384 399 0
-385 386 0
-385 397 0
-386 387 0
-386 395 0
-387 388 0
-387 393 0
-388 389 0
-388 391 0
-389 -22 390 0
-389 -390 22 0
-39 40 0
-39 7 0
-391 -25 392 0
-391 -392 25 0
-393 -27 394 0
-393 -394 27 0
-395 -29 396 0
-395 -396 29 0
-397 -31 398 0
-397 -398 31 0
-399 -33 400 0
-399 -400 33 0
-4 -5 6 0
-4 -6 5 0
-40 -13 9 0
-40 -9 13 0
-401 -35 402 0
-401 -402 35 0
-403 -37 404 0
-403 -404 37 0
-405 -53 406 0
-405 53 382 0
-406 -56 382 0
-406 56 407 0
-407 -106 382 0
-407 106 408 0
-408 -115 409 0
-408 115 382 0
-409 -217 410 0
-409 217 425 0
-41 -42 123 0
-41 42 146 0
-410 411 0
-410 424 0
-411 412 0
-411 423 0
-412 413 0
-412 422 0
-413 414 0
-413 421 0
-414 415 0
-414 420 0
-415 416 0
-415 419 0
-416 417 0
-416 418 0
-417 -22 226 0
-417 -226 22 0
-418 -231 25 0
-418 -25 231 0
-419 -237 27 0
-419 -27 237 0
-42 -43 50 0
-42 43 90 0
-420 -247 29 0
-420 -29 247 0
-421 -257 31 0
-421 -31 257 0
-422 -267 33 0
-422 -33 267 0
-423 -277 35 0
-423 -35 277 0
-424 -287 37 0
-424 -37 287 0
-425 -297 426 0
-425 297 382 0
-426 -300 382 0
-426 300 427 0
-427 428 0
-427 441 0
-428 429 0
-428 440 0
-429 430 0
-429 439 0
-43 44 47 0
-430 431 0
-430 438 0
-431 432 0
-431 437 0
-432 433 0
-432 436 0
-433 434 0
-433 435 0
-434 -22 310 0
-434 -310 22 0
-435 -25 315 0
-435 -315 25 0
-436 -27 321 0
-436 -321 27 0
-437 -29 331 0
-437 -331 29 0
-438 -31 341 0
-438 -341 31 0
-439 -33 351 0
-439 -351 33 0
-44 -45 0
-440 -35 361 0
-440 -361 35 0
-441 -37 371 0
-441 -371 37 0
-442 -43 443 0
-442 43 444 0
-443 -51 444 0
-443 51 482 0
-444 445 0
-444 478 0
-445 446 0
-445 474 0
-446 447 0
-446 470 0
-447 448 0
-447 466 0
-448 449 0
-448 462 0
-449 450 0
-449 458 0
-45 -46 6 0
-45 -6 46 0
-450 451 0
-450 454 0
-451 -22 452 0
-451 -452 22 0
-452 -453 -23 0
-452 453 23 0
-453 -390 -13 0
-453 390 13 0
-454 -25 455 0
-454 -455 25 0
-455 -456 -457 0
-455 456 457 0
-456 -392 -13 0
-456 392 13 0
-457 390 23 0
-458 -27 459 0
-458 -459 27 0
-459 -460 -461 0
-459 460 461 0
-460 -394 -13 0
-460 394 13 0
-461 392 457 0
-462 -29 463 0
-462 -463 29 0
-463 -464 -465 0
-463 464 465 0
-464 -396 -13 0
-464 396 13 0
-465 394 461 0
-466 -31 467 0
-466 -467 31 0
-467 -468 -469 0
-467 468 469 0
-468 -398 -13 0
-468 398 13 0
-469 396 465 0
-47 -48 0
-470 -33 471 0
-470 -471 33 0
-471 -472 -473 0
-471 472 473 0
-472 -400 -13 0
-472 400 13 0
-473 398 469 0
-474 -35 475 0
-474 -475 35 0
-475 -476 -477 0
-475 476 477 0
-476 -402 -13 0
-476 402 13 0
-477 400 473 0
-478 -37 479 0
-478 -479 37 0
-479 -480 -481 0
-479 480 481 0
-48 -10 49 0
-48 -49 10 0
-480 -404 -13 0
-480 404 13 0
-481 402 477 0
-482 -53 483 0
-482 53 444 0
-483 -56 444 0
-483 56 484 0
-484 -106 444 0
-484 106 485 0
-485 -115 486 0
-485 115 444 0
-486 -217 487 0
-486 217 525 0
-487 488 0
-487 521 0
-488 489 0
-488 517 0
-489 490 0
-489 513 0
-490 491 0
-490 509 0
-491 492 0
-491 505 0
-492 493 0
-492 501 0
-493 494 0
-493 497 0
-494 -22 495 0
-494 -495 22 0
-495 -496 -23 0
-495 496 23 0
-496 -226 -13 0
-496 226 13 0
-497 -25 498 0
-497 -498 25 0
-498 -499 -500 0
-498 499 500 0
-499 -231 -13 0
-499 231 13 0
-50 -51 13 0
-50 51 52 0
-500 226 23 0
-501 -27 502 0
-501 -502 27 0
-502 -503 -504 0
-502 503 504 0
-503 -237 -13 0
-503 237 13 0
-504 231 500 0
-505 -29 506 0
-505 -506 29 0
-506 -507 -508 0
-506 507 508 0
-507 -247 -13 0
-507 247 13 0
-508 237 504 0
-509 -31 510 0
-509 -510 31 0
-51 -13 6 0
-51 -6 13 0
-510 -511 -512 0
-510 511 512 0
-511 -257 -13 0
-511 257 13 0
-512 247 508 0
-513 -33 514 0
-513 -514 33 0
-514 -515 -516 0
-514 515 516 0
-515 -267 -13 0
-515 267 13 0
-516 257 512 0
-517 -35 518 0
-517 -518 35 0
-518 -519 -520 0
-518 519 520 0
-519 -277 -13 0
-519 277 13 0
-52 -53 55 0
-52 53 90 0
-520 267 516 0
-521 -37 522 0
-521 -522 37 0
-522 -523 -524 0
-522 523 524 0
-523 -287 -13 0
-523 287 13 0
-524 277 520 0
-525 -297 526 0
-525 297 444 0
-526 -300 444 0
-526 300 527 0
-527 528 0
-527 561 0
-528 529 0
-528 557 0
-529 530 0
-529 553 0
-53 47 0
-53 54 0
-530 531 0
-530 549 0
-531 532 0
-531 545 0
-532 533 0
-532 541 0
-533 534 0
-533 537 0
-534 -22 535 0
-534 -535 22 0
-535 -536 -23 0
-535 536 23 0
-536 -310 -13 0
-536 310 13 0
-537 -25 538 0
-537 -538 25 0
-538 -539 -540 0
-538 539 540 0
-539 -315 -13 0
-539 315 13 0
-54 -10 13 0
-54 -13 10 0
-540 310 23 0
-541 -27 542 0
-541 -542 27 0
-542 -543 -544 0
-542 543 544 0
-543 -321 -13 0
-543 321 13 0
-544 315 540 0
-545 -29 546 0
-545 -546 29 0
-546 -547 -548 0
-546 547 548 0
-547 -331 -13 0
-547 331 13 0
-548 321 544 0
-549 -31 550 0
-549 -550 31 0
-55 -56 79 0
-55 56 105 0
-550 -551 -552 0
-550 551 552 0
-551 -341 -13 0
-551 341 13 0
-552 331 548 0
-553 -33 554 0
-553 -554 33 0
-554 -555 -556 0
-554 555 556 0
-555 -351 -13 0
-555 351 13 0
-556 341 552 0
-557 -35 558 0
-557 -558 35 0
-558 -559 -560 0
-558 559 560 0
-559 -361 -13 0
-559 361 13 0
-56 57 0
-56 77 0
-560 351 556 0
-561 -37 562 0
-561 -562 37 0
-562 -563 -564 0
-562 563 564 0
-563 -371 -13 0
-563 371 13 0
-564 361 560 0
-565 -566 572 0
-565 566 857 0
-566 -43 567 0
-566 43 568 0
-567 -51 568 0
-567 51 569 0
-568 -13 298 0
-568 -298 13 0
-569 -53 570 0
-569 53 568 0
-57 58 0
-57 75 0
-570 -13 571 0
-570 -571 13 0
-572 -573 579 0
-572 573 186 0
-573 -43 574 0
-573 43 575 0
-574 -51 575 0
-574 51 576 0
-575 -13 301 0
-575 -301 13 0
-576 -53 577 0
-576 53 575 0
-577 -13 578 0
-577 -578 13 0
-579 -43 580 0
-579 43 583 0
-58 59 0
-58 73 0
-580 -51 14 0
-580 51 581 0
-581 -53 582 0
-581 53 583 0
-582 -56 583 0
-582 56 598 0
-583 584 0
-583 597 0
-584 585 0
-584 596 0
-585 586 0
-585 595 0
-586 587 0
-586 594 0
-587 588 0
-587 593 0
-588 589 0
-588 592 0
-589 590 0
-589 591 0
-59 60 0
-59 71 0
-590 -22 313 0
-590 -313 22 0
-591 -25 318 0
-591 -318 25 0
-592 -27 324 0
-592 -324 27 0
-593 -29 334 0
-593 -334 29 0
-594 -31 344 0
-594 -344 31 0
-595 -33 354 0
-595 -354 33 0
-596 -35 364 0
-596 -364 35 0
-597 -37 374 0
-597 -374 37 0
-598 -106 14 0
-598 106 599 0
-599 -115 600 0
-599 115 583 0
-60 61 0
-60 69 0
-600 -601 608 0
-600 601 637 0
-601 602 605 0
-602 -603 0
-603 -46 604 0
-603 -604 46 0
-605 -606 0
-606 -49 607 0
-606 -607 49 0
-608 -609 14 0
-608 609 610 0
-609 -13 46 0
-609 -46 13 0
-61 62 0
-61 67 0
-610 -611 613 0
-610 611 637 0
-611 605 0
-611 612 0
-612 -13 49 0
-612 -49 13 0
-613 -614 637 0
-613 614 660 0
-614 615 0
-614 635 0
-615 616 0
-615 633 0
-616 617 0
-616 631 0
-617 618 0
-617 629 0
-618 619 0
-618 627 0
-619 620 0
-619 625 0
-62 63 0
-62 65 0
-620 621 0
-620 623 0
-621 -23 622 0
-621 -622 23 0
-623 -23 624 0
-623 -624 23 0
-625 -23 626 0
-625 -626 23 0
-627 -23 628 0
-627 -628 23 0
-629 -23 630 0
-629 -630 23 0
-63 -23 64 0
-63 -64 23 0
-631 -23 632 0
-631 -632 23 0
-633 -23 634 0
-633 -634 23 0
-635 -23 636 0
-635 -636 23 0
-637 638 0
-637 658 0
-638 639 0
-638 656 0
-639 640 0
-639 654 0
-640 641 0
-640 652 0
-641 642 0
-641 650 0
-642 643 0
-642 648 0
-643 644 0
-643 646 0
-644 -22 645 0
-644 -645 22 0
-646 -25 647 0
-646 -647 25 0
-648 -27 649 0
-648 -649 27 0
-65 -23 66 0
-65 -66 23 0
-650 -29 651 0
-650 -651 29 0
-652 -31 653 0
-652 -653 31 0
-654 -33 655 0
-654 -655 33 0
-656 -35 657 0
-656 -657 35 0
-658 -37 659 0
-658 -659 37 0
-660 -661 14 0
-660 661 669 0
-661 635 0
-661 662 0
-662 633 0
-662 663 0
-663 631 0
-663 664 0
-664 629 0
-664 665 0
-665 627 0
-665 666 0
-666 625 0
-666 667 0
-667 623 0
-667 668 0
-668 -13 622 0
-668 -622 13 0
-669 -670 678 0
-669 670 637 0
-67 -23 68 0
-67 -68 23 0
-670 635 0
-670 671 0
-671 633 0
-671 672 0
-672 631 0
-672 673 0
-673 629 0
-673 674 0
-674 627 0
-674 675 0
-675 625 0
-675 676 0
-676 621 0
-676 677 0
-677 -13 624 0
-677 -624 13 0
-678 -679 686 0
-678 679 715 0
-679 680 683 0
-680 -681 0
-681 -604 682 0
-681 -682 604 0
-683 -684 0
-684 -607 685 0
-684 -685 607 0
-686 -687 14 0
-686 687 688 0
-687 -13 604 0
-687 -604 13 0
-688 -689 691 0
-688 689 715 0
-689 683 0
-689 690 0
-69 -23 70 0
-69 -70 23 0
-690 -13 607 0
-690 -607 13 0
-691 -692 715 0
-691 692 738 0
-692 693 0
-692 713 0
-693 694 0
-693 711 0
-694 695 0
-694 709 0
-695 696 0
-695 707 0
-696 697 0
-696 705 0
-697 698 0
-697 703 0
-698 699 0
-698 701 0
-699 -23 700 0
-699 -700 23 0
-7 -8 0
-701 -23 702 0
-701 -702 23 0
-703 -23 704 0
-703 -704 23 0
-705 -23 706 0
-705 -706 23 0
-707 -23 708 0
-707 -708 23 0
-709 -23 710 0
-709 -710 23 0
-71 -23 72 0
-71 -72 23 0
-711 -23 712 0
-711 -712 23 0
-713 -23 714 0
-713 -714 23 0
-715 716 0
-715 736 0
-716 717 0
-716 734 0
-717 718 0
-717 732 0
-718 719 0
-718 730 0
-719 720 0
-719 728 0
-720 721 0
-720 726 0
-721 722 0
-721 724 0
-722 -22 723 0
-722 -723 22 0
-724 -25 725 0
-724 -725 25 0
-726 -27 727 0
-726 -727 27 0
-728 -29 729 0
-728 -729 29 0
-73 -23 74 0
-73 -74 23 0
-730 -31 731 0
-730 -731 31 0
-732 -33 733 0
-732 -733 33 0
-734 -35 735 0
-734 -735 35 0
-736 -37 737 0
-736 -737 37 0
-738 -739 14 0
-738 739 747 0
-739 713 0
-739 740 0
-740 711 0
-740 741 0
-741 709 0
-741 742 0
-742 707 0
-742 743 0
-743 705 0
-743 744 0
-744 703 0
-744 745 0
-745 701 0
-745 746 0
-746 -13 700 0
-746 -700 13 0
-747 -748 756 0
-747 748 715 0
-748 713 0
-748 749 0
-749 711 0
-749 750 0
-75 -23 76 0
-75 -76 23 0
-750 709 0
-750 751 0
-751 707 0
-751 752 0
-752 705 0
-752 753 0
-753 703 0
-753 754 0
-754 699 0
-754 755 0
-755 -13 702 0
-755 -702 13 0
-756 -757 764 0
-756 757 793 0
-757 758 761 0
-758 -759 0
-759 -682 760 0
-759 -760 682 0
-761 -762 0
-762 -685 763 0
-762 -763 685 0
-764 -765 14 0
-764 765 766 0
-765 -13 682 0
-765 -682 13 0
-766 -767 769 0
-766 767 793 0
-767 761 0
-767 768 0
-768 -13 685 0
-768 -685 13 0
-769 -770 793 0
-769 770 816 0
-77 -23 78 0
-77 -78 23 0
-770 771 0
-770 791 0
-771 772 0
-771 789 0
-772 773 0
-772 787 0
-773 774 0
-773 785 0
-774 775 0
-774 783 0
-775 776 0
-775 781 0
-776 777 0
-776 779 0
-777 -23 778 0
-777 -778 23 0
-779 -23 780 0
-779 -780 23 0
-781 -23 782 0
-781 -782 23 0
-783 -23 784 0
-783 -784 23 0
-785 -23 786 0
-785 -786 23 0
-787 -23 788 0
-787 -788 23 0
-789 -23 790 0
-789 -790 23 0
-79 -80 23 0
-79 80 90 0
-791 -23 792 0
-791 -792 23 0
-793 794 0
-793 814 0
-794 795 0
-794 812 0
-795 796 0
-795 810 0
-796 797 0
-796 808 0
-797 798 0
-797 806 0
-798 799 0
-798 804 0
-799 800 0
-799 802 0
-8 -10 9 0
-8 -9 10 0
-80 81 0
-80 89 0
-800 -22 801 0
-800 -801 22 0
-802 -25 803 0
-802 -803 25 0
-804 -27 805 0
-804 -805 27 0
-806 -29 807 0
-806 -807 29 0
-808 -31 809 0
-808 -809 31 0
-81 82 0
-81 89 0
-810 -33 811 0
-810 -811 33 0
-812 -35 813 0
-812 -813 35 0
-814 -37 815 0
-814 -815 37 0
-816 -817 14 0
-816 817 825 0
-817 791 0
-817 818 0
-818 789 0
-818 819 0
-819 787 0
-819 820 0
-82 83 0
-82 89 0
-820 785 0
-820 821 0
-821 783 0
-821 822 0
-822 781 0
-822 823 0
-823 779 0
-823 824 0
-824 -13 778 0
-824 -778 13 0
-825 -826 834 0
-825 826 793 0
-826 791 0
-826 827 0
-827 789 0
-827 828 0
-828 787 0
-828 829 0
-829 785 0
-829 830 0
-83 84 0
-83 89 0
-830 783 0
-830 831 0
-831 781 0
-831 832 0
-832 777 0
-832 833 0
-833 -13 780 0
-833 -780 13 0
-834 835 0
-834 855 0
-835 836 0
-835 853 0
-836 837 0
-836 851 0
-837 838 0
-837 849 0
-838 839 0
-838 847 0
-839 840 0
-839 845 0
-84 85 0
-84 89 0
-840 841 0
-840 843 0
-841 -22 842 0
-841 -842 22 0
-843 -25 844 0
-843 -844 25 0
-845 -27 846 0
-845 -846 27 0
-847 -29 848 0
-847 -848 29 0
-849 -31 850 0
-849 -850 31 0
-85 86 0
-85 89 0
-851 -33 852 0
-851 -852 33 0
-853 -35 854 0
-853 -854 35 0
-855 -37 856 0
-855 -856 37 0
-857 -43 858 0
-857 43 861 0
-858 -51 14 0
-858 51 859 0
-859 -53 860 0
-859 53 861 0
-86 87 0
-86 89 0
-860 -56 861 0
-860 56 884 0
-861 862 0
-861 882 0
-862 863 0
-862 880 0
-863 864 0
-863 878 0
-864 865 0
-864 876 0
-865 866 0
-865 874 0
-866 867 0
-866 872 0
-867 868 0
-867 870 0
-868 -22 869 0
-868 -869 22 0
-87 -23 88 0
-87 -88 23 0
-870 -25 871 0
-870 -871 25 0
-872 -27 873 0
-872 -873 27 0
-874 -29 875 0
-874 -875 29 0
-876 -31 877 0
-876 -877 31 0
-878 -33 879 0
-878 -879 33 0
-880 -35 881 0
-880 -881 35 0
-882 -37 883 0
-882 -883 37 0
-884 -106 14 0
-884 106 885 0
-885 -115 886 0
-885 115 861 0
-886 -217 887 0
-886 217 903 0
-887 -297 888 0
-887 297 861 0
-888 889 0
-888 902 0
-889 890 0
-889 901 0
-89 -23 23 0
-890 891 0
-890 900 0
-891 892 0
-891 899 0
-892 893 0
-892 898 0
-893 894 0
-893 897 0
-894 895 0
-894 896 0
-895 -22 312 0
-895 -312 22 0
-896 -25 317 0
-896 -317 25 0
-897 -27 323 0
-897 -323 27 0
-898 -29 333 0
-898 -333 29 0
-899 -31 343 0
-899 -343 31 0
-90 104 0
-90 91 0
-900 -33 353 0
-900 -353 33 0
-901 -35 363 0
-901 -363 35 0
-902 -37 373 0
-902 -373 37 0
-903 -297 887 0
-903 297 861 0
-91 103 0
-91 92 0
-92 102 0
-92 93 0
-93 101 0
-93 94 0
-94 100 0
-94 95 0
-95 96 0
-95 99 0
-96 97 0
-96 98 0
-97 -23 64 0
-97 -64 23 0
-98 -23 66 0
-98 -66 23 0
-99 -23 68 0
-99 -68 23 0
1 -11 -123 0
1 -2 -11 0
1 0
1 2 -123 0
100 -23 -70 0
100 23 70 0
101 -23 -72 0
101 23 72 0
102 -23 -74 0
102 23 74 0
103 -23 -76 0
103 23 76 0
104 -23 -78 0
104 23 78 0
105 -106 -23 0
105 -23 -114 0
105 106 -114 0
106 -107 -77 0
107 -108 -75 0
108 -109 -73 0
109 -110 -71 0
11 -12 -14 0
11 -14 -38 0
11 12 -38 0
110 -111 -69 0
111 -112 -67 0
112 -113 -65 0
113 -64 -13 0
113 64 13 0
114 -115 -23 0
114 -23 -90 0
114 115 -90 0
115 -116 -77 0
116 -117 -75 0
117 -118 -73 0
118 -119 -71 0
119 -120 -69 0
12 -5 -13 0
12 5 13 0
120 -121 -67 0
121 -63 -122 0
122 -66 -13 0
122 66 13 0
123 -124 -144 0
124 -125 -142 0
125 -126 -140 0
126 -127 -138 0
127 -128 -136 0
128 -129 -134 0
129 -130 -132 0
13 0
130 -22 -131 0
130 22 131 0
132 -25 -133 0
132 25 133 0
134 -27 -135 0
134 27 135 0
136 -29 -137 0
136 29 137 0
138 -31 -139 0
138 31 139 0
14 -15 -36 0
140 -33 -141 0
140 33 141 0
142 -35 -143 0
142 35 143 0
144 -37 -145 0
144 37 145 0
146 -14 -162 0
146 -147 -14 0
146 147 -162 0
147 -148 -152 0
147 -43 -148 0
147 43 -152 0
148 -23 -149 0
148 -51 -23 0
148 51 -149 0
149 -150 -152 0
149 -53 -150 0
149 53 -152 0
15 -16 -34 0
150 -151 -160 0
150 -56 -151 0
150 56 -160 0
151 -13 -152 0
151 -80 -13 0
151 80 -152 0
152 -153 -104 0
153 -154 -103 0
154 -155 -102 0
155 -156 -101 0
156 -157 -100 0
157 -158 -99 0
158 -159 -98 0
159 -13 -64 0
159 13 64 0
16 -17 -32 0
160 -106 -23 0
160 -23 -161 0
160 106 -161 0
161 -115 -23 0
161 -23 -152 0
161 115 -152 0
162 -163 -178 0
162 -178 -123 0
162 163 -123 0
163 -164 -168 0
163 -43 -164 0
163 43 -168 0
164 -23 -165 0
164 -51 -23 0
164 51 -165 0
165 -166 -168 0
165 -53 -166 0
165 53 -168 0
166 -167 -176 0
166 -56 -167 0
166 56 -176 0
167 -23 -168 0
167 -80 -23 0
167 80 -168 0
168 -169 -104 0
169 -170 -103 0
17 -18 -30 0
170 -171 -102 0
171 -172 -101 0
172 -173 -100 0
173 -174 -99 0
174 -97 -175 0
175 -13 -66 0
175 13 66 0
176 -106 -13 0
176 -13 -177 0
176 106 -177 0
177 -115 -13 0
177 -13 -168 0
177 115 -168 0
178 -179 -186 0
178 -186 -565 0
178 179 -565 0
179 -180 -181 0
179 -43 -180 0
179 43 -181 0
18 -19 -28 0
180 -181 -183 0
180 -51 -181 0
180 51 -183 0
181 -13 -182 0
181 13 182 0
183 -184 -181 0
183 -53 -184 0
183 53 -181 0
184 -13 -185 0
184 13 185 0
186 -187 -380 0
186 -380 -442 0
186 187 -442 0
187 -188 -189 0
187 -43 -188 0
187 43 -189 0
188 -189 -212 0
188 -51 -189 0
188 51 -212 0
189 -190 -210 0
19 -20 -26 0
190 -191 -208 0
191 -192 -206 0
192 -193 -204 0
193 -194 -202 0
194 -195 -200 0
195 -196 -198 0
196 -23 -197 0
196 23 197 0
198 -23 -199 0
198 23 199 0
2 -3 0
2 -7 0
20 -21 -24 0
200 -23 -201 0
200 23 201 0
202 -23 -203 0
202 23 203 0
204 -23 -205 0
204 23 205 0
206 -23 -207 0
206 23 207 0
208 -23 -209 0
208 23 209 0
21 -22 -23 0
21 22 23 0
210 -23 -211 0
210 23 211 0
212 -213 -189 0
212 -53 -213 0
212 53 -189 0
213 -189 -214 0
213 -56 -189 0
213 56 -214 0
214 -106 -189 0
214 -189 -215 0
214 106 -215 0
215 -115 -216 0
215 -216 -189 0
215 115 -189 0
216 -217 -218 0
216 -218 -296 0
216 217 -296 0
217 -182 -13 0
217 182 13 0
218 -219 -286 0
219 -220 -276 0
220 -221 -266 0
221 -222 -256 0
222 -223 -246 0
223 -224 -236 0
224 -225 -230 0
225 -23 -226 0
225 23 226 0
226 -227 23 0
226 -23 227 0
227 -228 229 0
227 -229 228 0
230 -23 -231 0
230 23 231 0
231 -232 235 0
231 -235 232 0
232 -233 234 0
232 -234 233 0
235 -228 -229 0
236 -23 -237 0
236 23 237 0
237 -238 241 0
237 -241 238 0
238 -239 240 0
238 -240 239 0
24 -25 -23 0
24 25 23 0
241 -242 0
241 -245 0
242 -243 0
242 -244 0
243 -233 -234 0
244 -234 -235 0
245 -233 -235 0
246 -23 -247 0
246 23 247 0
247 -248 251 0
247 -251 248 0
248 -249 250 0
248 -250 249 0
251 -252 0
251 -255 0
252 -253 0
252 -254 0
253 -239 -240 0
254 -240 -241 0
255 -239 -241 0
256 -23 -257 0
256 23 257 0
257 -258 261 0
257 -261 258 0
258 -259 260 0
258 -260 259 0
26 -27 -23 0
26 27 23 0
261 -262 0
261 -265 0
262 -263 0
262 -264 0
263 -249 -250 0
264 -250 -251 0
265 -249 -251 0
266 -23 -267 0
266 23 267 0
267 -268 271 0
267 -271 268 0
268 -269 270 0
268 -270 269 0
271 -272 0
271 -275 0
272 -273 0
272 -274 0
273 -259 -260 0
274 -260 -261 0
275 -259 -261 0
276 -23 -277 0
276 23 277 0
277 -278 281 0
277 -281 278 0
278 -279 280 0
278 -280 279 0
28 -29 -23 0
28 29 23 0
281 -282 0
281 -285 0
282 -283 0
282 -284 0
283 -269 -270 0
284 -270 -271 0
285 -269 -271 0
286 -23 -287 0
286 23 287 0
287 -288 291 0
287 -291 288 0
288 -289 290 0
288 -290 289 0
291 -292 0
291 -295 0
292 -293 0
292 -294 0
293 -279 -280 0
294 -280 -281 0
295 -279 -281 0
296 -297 -299 0
296 -299 -189 0
296 297 -189 0
297 -298 -13 0
297 298 13 0
299 -189 -302 0
299 -300 -189 0
299 300 -302 0
3 4 0
30 -31 -23 0
30 31 23 0
300 -301 -13 0
300 301 13 0
302 -303 -370 0
303 -304 -360 0
304 -305 -350 0
305 -306 -340 0
306 -307 -330 0
307 -308 -320 0
308 -309 -314 0
309 -23 -310 0
309 23 310 0
310 -23 311 0
310 -311 23 0
311 -312 313 0
311 -313 312 0
314 -23 -315 0
314 23 315 0
315 -316 319 0
315 -319 316 0
316 -317 318 0
316 -318 317 0
319 -312 -313 0
32 -33 -23 0
32 33 23 0
320 -23 -321 0
320 23 321 0
321 -322 325 0
321 -325 322 0
322 -323 324 0
322 -324 323 0
325 -326 0
325 -329 0
326 -327 0
326 -328 0
327 -317 -318 0
328 -318 -319 0
329 -317 -319 0
330 -23 -331 0
330 23 331 0
331 -332 335 0
331 -335 332 0
332 -333 334 0
332 -334 333 0
335 -336 0
335 -339 0
336 -337 0
336 -338 0
337 -323 -324 0
338 -324 -325 0
339 -323 -325 0
34 -35 -23 0
34 35 23 0
340 -23 -341 0
340 23 341 0
341 -342 345 0
341 -345 342 0
342 -343 344 0
342 -344 343 0
345 -346 0
345 -349 0
346 -347 0
346 -348 0
347 -333 -334 0
348 -334 -335 0
349 -333 -335 0
350 -23 -351 0
350 23 351 0
351 -352 355 0
351 -355 352 0
352 -353 354 0
352 -354 353 0
355 -356 0
355 -359 0
356 -357 0
356 -358 0
357 -343 -344 0
358 -344 -345 0
359 -343 -345 0
36 -37 -23 0
36 37 23 0
360 -23 -361 0
360 23 361 0
361 -362 365 0
361 -365 362 0
362 -363 364 0
362 -364 363 0
365 -366 0
365 -369 0
366 -367 0
366 -368 0
367 -353 -354 0
368 -354 -355 0
369 -353 -355 0
370 -23 -371 0
370 23 371 0
371 -372 375 0
371 -375 372 0
372 -373 374 0
372 -374 373 0
375 -376 0
375 -379 0
376 -377 0
376 -378 0
377 -363 -364 0
378 -364 -365 0
379 -363 -365 0
38 -39 -41 0
38 -41 -123 0
38 39 -123 0
380 -381 -382 0
380 -43 -381 0
380 43 -382 0
381 -382 -405 0
381 -51 -382 0
381 51 -405 0
382 -383 -403 0
383 -384 -401 0
384 -385 -399 0
385 -386 -397 0
386 -387 -395 0
387 -388 -393 0
388 -389 -391 0
389 -22 -390 0
389 22 390 0
39 -7 -40 0
391 -25 -392 0
391 25 392 0
393 -27 -394 0
393 27 394 0
395 -29 -396 0
395 29 396 0
397 -31 -398 0
397 31 398 0
399 -33 -400 0
399 33 400 0
4 -5 -6 0
4 5 6 0
40 -9 -13 0
40 9 13 0
401 -35 -402 0
401 35 402 0
403 -37 -404 0
403 37 404 0
405 -406 -382 0
405 -53 -406 0
405 53 -382 0
406 -382 -407 0
406 -56 -382 0
406 56 -407 0
407 -106 -382 0
407 -382 -408 0
407 106 -408 0
408 -115 -409 0
408 -409 -382 0
408 115 -382 0
409 -217 -410 0
409 -410 -425 0
409 217 -425 0
41 -123 -146 0
41 -42 -123 0
41 42 -146 0
410 -411 -424 0
411 -412 -423 0
412 -413 -422 0
413 -414 -421 0
414 -415 -420 0
415 -416 -419 0
416 -417 -418 0
417 -22 -226 0
417 22 226 0
418 -25 -231 0
418 25 231 0
419 -27 -237 0
419 27 237 0
42 -43 -50 0
42 -50 -90 0
42 43 -90 0
420 -29 -247 0
420 29 247 0
421 -31 -257 0
421 31 257 0
422 -33 -267 0
422 33 267 0
423 -35 -277 0
423 35 277 0
424 -37 -287 0
424 37 287 0
425 -297 -426 0
425 -426 -382 0
425 297 -382 0
426 -300 -382 0
426 -382 -427 0
426 300 -427 0
427 -428 -441 0
428 -429 -440 0
429 -430 -439 0
43 -44 0
43 -47 0
430 -431 -438 0
431 -432 -437 0
432 -433 -436 0
433 -434 -435 0
434 -22 -310 0
434 22 310 0
435 -25 -315 0
435 25 315 0
436 -27 -321 0
436 27 321 0
437 -29 -331 0
437 29 331 0
438 -31 -341 0
438 31 341 0
439 -33 -351 0
439 33 351 0
44 45 0
440 -35 -361 0
440 35 361 0
441 -37 -371 0
441 37 371 0
442 -43 -443 0
442 -443 -444 0
442 43 -444 0
443 -444 -482 0
443 -51 -444 0
443 51 -482 0
444 -445 -478 0
445 -446 -474 0
446 -447 -470 0
447 -448 -466 0
448 -449 -462 0
449 -450 -458 0
45 -6 -46 0
45 6 46 0
450 -451 -454 0
451 -22 -452 0
451 22 452 0
452 -23 453 0
452 -453 23 0
453 -13 390 0
453 -390 13 0
454 -25 -455 0
454 25 455 0
455 -456 457 0
455 -457 456 0
456 -13 392 0
456 -392 13 0
457 -23 0
457 -390 0
458 -27 -459 0
458 27 459 0
459 -460 461 0
459 -461 460 0
460 -13 394 0
460 -394 13 0
461 -392 0
461 -457 0
462 -29 -463 0
462 29 463 0
463 -464 465 0
463 -465 464 0
464 -13 396 0
464 -396 13 0
465 -394 0
465 -461 0
466 -31 -467 0
466 31 467 0
467 -468 469 0
467 -469 468 0
468 -13 398 0
468 -398 13 0
469 -396 0
469 -465 0
47 48 0
470 -33 -471 0
470 33 471 0
471 -472 473 0
471 -473 472 0
472 -13 400 0
472 -400 13 0
473 -398 0
473 -469 0
474 -35 -475 0
474 35 475 0
475 -476 477 0
475 -477 476 0
476 -13 402 0
476 -402 13 0
477 -400 0
477 -473 0
478 -37 -479 0
478 37 479 0
479 -480 481 0
479 -481 480 0
48 -10 -49 0
48 10 49 0
480 -13 404 0
480 -404 13 0
481 -402 0
481 -477 0
482 -483 -444 0
482 -53 -483 0
482 53 -444 0
483 -444 -484 0
483 -56 -444 0
483 56 -484 0
484 -106 -444 0
484 -444 -485 0
484 106 -485 0
485 -115 -486 0
485 -486 -444 0
485 115 -444 0
486 -217 -487 0
486 -487 -525 0
486 217 -525 0
487 -488 -521 0
488 -489 -517 0
489 -490 -513 0
490 -491 -509 0
491 -492 -505 0
492 -493 -501 0
493 -494 -497 0
494 -22 -495 0
494 22 495 0
495 -23 496 0
495 -496 23 0
496 -13 226 0
496 -226 13 0
497 -25 -498 0
497 25 498 0
498 -499 500 0
498 -500 499 0
499 -13 231 0
499 -231 13 0
50 -13 -52 0
50 -51 -13 0
50 51 -52 0
500 -226 0
500 -23 0
501 -27 -502 0
501 27 502 0
502 -503 504 0
502 -504 503 0
503 -13 237 0
503 -237 13 0
504 -231 0
504 -500 0
505 -29 -506 0
505 29 506 0
506 -507 508 0
506 -508 507 0
507 -13 247 0
507 -247 13 0
508 -237 0
508 -504 0
509 -31 -510 0
509 31 510 0
51 -6 -13 0
51 6 13 0
510 -511 512 0
510 -512 511 0
511 -13 257 0
511 -257 13 0
512 -247 0
512 -508 0
513 -33 -514 0
513 33 514 0
514 -515 516 0
514 -516 515 0
515 -13 267 0
515 -267 13 0
516 -257 0
516 -512 0
517 -35 -518 0
517 35 518 0
518 -519 520 0
518 -520 519 0
519 -13 277 0
519 -277 13 0
52 -53 -55 0
52 -55 -90 0
52 53 -90 0
520 -267 0
520 -516 0
521 -37 -522 0
521 37 522 0
522 -523 524 0
522 -524 523 0
523 -13 287 0
523 -287 13 0
524 -277 0
524 -520 0
525 -297 -526 0
525 -526 -444 0
525 297 -444 0
526 -300 -444 0
526 -444 -527 0
526 300 -527 0
527 -528 -561 0
528 -529 -557 0
529 -530 -553 0
53 -47 -54 0
530 -531 -549 0
531 -532 -545 0
532 -533 -541 0
533 -534 -537 0
534 -22 -535 0
534 22 535 0
535 -23 536 0
535 -536 23 0
536 -13 310 0
536 -310 13 0
537 -25 -538 0
537 25 538 0
538 -539 540 0
538 -540 539 0
539 -13 315 0
539 -315 13 0
54 -10 -13 0
54 10 13 0
540 -23 0
540 -310 0
541 -27 -542 0
541 27 542 0
542 -543 544 0
542 -544 543 0
543 -13 321 0
543 -321 13 0
544 -315 0
544 -540 0
545 -29 -546 0
545 29 546 0
546 -547 548 0
546 -548 547 0
547 -13 331 0
547 -331 13 0
548 -321 0
548 -544 0
549 -31 -550 0
549 31 550 0
55 -56 -79 0
55 -79 -105 0
55 56 -105 0
550 -551 552 0
550 -552 551 0
551 -13 341 0
551 -341 13 0
552 -331 0
552 -548 0
553 -33 -554 0
553 33 554 0
554 -555 556 0
554 -556 555 0
555 -13 351 0
555 -351 13 0
556 -341 0
556 -552 0
557 -35 -558 0
557 35 558 0
558 -559 560 0
558 -560 559 0
559 -13 361 0
559 -361 13 0
56 -57 -77 0
560 -351 0
560 -556 0
561 -37 -562 0
561 37 562 0
562 -563 564 0
562 -564 563 0
563 -13 371 0
563 -371 13 0
564 -361 0
564 -560 0
565 -566 -572 0
565 -572 -857 0
565 566 -857 0
566 -43 -567 0
566 -567 -568 0
566 43 -568 0
567 -51 -568 0
567 -568 -569 0
567 51 -569 0
568 -13 -298 0
568 13 298 0
569 -53 -570 0
569 -570 -568 0
569 53 -568 0
57 -58 -75 0
570 -13 -571 0
570 13 571 0
572 -573 -579 0
572 -579 -186 0
572 573 -186 0
573 -43 -574 0
573 -574 -575 0
573 43 -575 0
574 -51 -575 0
574 -575 -576 0
574 51 -576 0
575 -13 -301 0
575 13 301 0
576 -53 -577 0
576 -577 -575 0
576 53 -575 0
577 -13 -578 0
577 13 578 0
579 -43 -580 0
579 -580 -583 0
579 43 -583 0
58 -59 -73 0
580 -14 -581 0
580 -51 -14 0
580 51 -581 0
581 -53 -582 0
581 -582 -583 0
581 53 -583 0
582 -56 -583 0
582 -583 -598 0
582 56 -598 0
583 -584 -597 0
584 -585 -596 0
585 -586 -595 0
586 -587 -594 0
587 -588 -593 0
588 -589 -592 0
589 -590 -591 0
59 -60 -71 0
590 -22 -313 0
590 22 313 0
591 -25 -318 0
591 25 318 0
592 -27 -324 0
592 27 324 0
593 -29 -334 0
593 29 334 0
594 -31 -344 0
594 31 344 0
595 -33 -354 0
595 33 354 0
596 -35 -364 0
596 35 364 0
597 -37 -374 0
597 37 374 0
598 -106 -14 0
598 -14 -599 0
598 106 -599 0
599 -115 -600 0
599 -600 -583 0
599 115 -583 0
60 -61 -69 0
600 -601 -608 0
600 -608 -637 0
600 601 -637 0
601 -602 0
601 -605 0
602 603 0
603 -46 -604 0
603 46 604 0
605 606 0
606 -49 -607 0
606 49 607 0
608 -14 -610 0
608 -609 -14 0
608 609 -610 0
609 -46 -13 0
609 46 13 0
61 -62 -67 0
610 -611 -613 0
610 -613 -637 0
610 611 -637 0
611 -605 -612 0
612 -49 -13 0
612 49 13 0
613 -614 -637 0
613 -637 -660 0
613 614 -660 0
614 -615 -635 0
615 -616 -633 0
616 -617 -631 0
617 -618 -629 0
618 -619 -627 0
619 -620 -625 0
62 -63 -65 0
620 -621 -623 0
621 -622 -23 0
621 622 23 0
623 -624 -23 0
623 624 23 0
625 -626 -23 0
625 626 23 0
627 -628 -23 0
627 628 23 0
629 -630 -23 0
629 630 23 0
63 -64 -23 0
63 64 23 0
631 -632 -23 0
631 632 23 0
633 -634 -23 0
633 634 23 0
635 -636 -23 0
635 636 23 0
637 -638 -658 0
638 -639 -656 0
639 -640 -654 0
640 -641 -652 0
641 -642 -650 0
642 -643 -648 0
643 -644 -646 0
644 -22 -645 0
644 22 645 0
646 -25 -647 0
646 25 647 0
648 -27 -649 0
648 27 649 0
65 -66 -23 0
65 66 23 0
650 -29 -651 0
650 29 651 0
652 -31 -653 0
652 31 653 0
654 -33 -655 0
654 33 655 0
656 -35 -657 0
656 35 657 0
658 -37 -659 0
658 37 659 0
660 -14 -669 0
660 -661 -14 0
660 661 -669 0
661 -662 -635 0
662 -663 -633 0
663 -664 -631 0
664 -665 -629 0
665 -666 -627 0
666 -667 -625 0
667 -668 -623 0
668 -622 -13 0
668 622 13 0
669 -670 -678 0
669 -678 -637 0
669 670 -637 0
67 -68 -23 0
67 68 23 0
670 -671 -635 0
671 -672 -633 0
672 -673 -631 0
673 -674 -629 0
674 -675 -627 0
675 -676 -625 0
676 -621 -677 0
677 -624 -13 0
677 624 13 0
678 -679 -686 0
678 -686 -715 0
678 679 -715 0
679 -680 0
679 -683 0
680 681 0
681 -604 -682 0
681 604 682 0
683 684 0
684 -607 -685 0
684 607 685 0
686 -14 -688 0
686 -687 -14 0
686 687 -688 0
687 -604 -13 0
687 604 13 0
688 -689 -691 0
688 -691 -715 0
688 689 -715 0
689 -683 -690 0
69 -70 -23 0
69 70 23 0
690 -607 -13 0
690 607 13 0
691 -692 -715 0
691 -715 -738 0
691 692 -738 0
692 -693 -713 0
693 -694 -711 0
694 -695 -709 0
695 -696 -707 0
696 -697 -705 0
697 -698 -703 0
698 -699 -701 0
699 -700 -23 0
699 700 23 0
7 8 0
701 -702 -23 0
701 702 23 0
703 -704 -23 0
703 704 23 0
705 -706 -23 0
705 706 23 0
707 -708 -23 0
707 708 23 0
709 -710 -23 0
709 710 23 0
71 -72 -23 0
71 72 23 0
711 -712 -23 0
711 712 23 0
713 -714 -23 0
713 714 23 0
715 -716 -736 0
716 -717 -734 0
717 -718 -732 0
718 -719 -730 0
719 -720 -728 0
720 -721 -726 0
721 -722 -724 0
722 -22 -723 0
722 22 723 0
724 -25 -725 0
724 25 725 0
726 -27 -727 0
726 27 727 0
728 -29 -729 0
728 29 729 0
73 -74 -23 0
73 74 23 0
730 -31 -731 0
730 31 731 0
732 -33 -733 0
732 33 733 0
734 -35 -735 0
734 35 735 0
736 -37 -737 0
736 37 737 0
738 -14 -747 0
738 -739 -14 0
738 739 -747 0
739 -740 -713 0
740 -741 -711 0
741 -742 -709 0
742 -743 -707 0
743 -744 -705 0
744 -745 -703 0
745 -746 -701 0
746 -700 -13 0
746 700 13 0
747 -748 -756 0
747 -756 -715 0
747 748 -715 0
748 -749 -713 0
749 -750 -711 0
75 -76 -23 0
75 76 23 0
750 -751 -709 0
751 -752 -707 0
752 -753 -705 0
753 -754 -703 0
754 -699 -755 0
755 -702 -13 0
755 702 13 0
756 -757 -764 0
756 -764 -793 0
756 757 -793 0
757 -758 0
757 -761 0
758 759 0
759 -682 -760 0
759 682 760 0
761 762 0
762 -685 -763 0
762 685 763 0
764 -14 -766 0
764 -765 -14 0
764 765 -766 0
765 -682 -13 0
765 682 13 0
766 -767 -769 0
766 -769 -793 0
766 767 -793 0
767 -761 -768 0
768 -685 -13 0
768 685 13 0
769 -770 -793 0
769 -793 -816 0
769 770 -816 0
77 -78 -23 0
77 78 23 0
770 -771 -791 0
771 -772 -789 0
772 -773 -787 0
773 -774 -785 0
774 -775 -783 0
775 -776 -781 0
776 -777 -779 0
777 -778 -23 0
777 778 23 0
779 -780 -23 0
779 780 23 0
781 -782 -23 0
781 782 23 0
783 -784 -23 0
783 784 23 0
785 -786 -23 0
785 786 23 0
787 -788 -23 0
787 788 23 0
789 -790 -23 0
789 790 23 0
79 -23 -90 0
79 -80 -23 0
79 80 -90 0
791 -792 -23 0
791 792 23 0
793 -794 -814 0
794 -795 -812 0
795 -796 -810 0
796 -797 -808 0
797 -798 -806 0
798 -799 -804 0
799 -800 -802 0
8 -9 -10 0
8 9 10 0
80 -81 -89 0
800 -22 -801 0
800 22 801 0
802 -25 -803 0
802 25 803 0
804 -27 -805 0
804 27 805 0
806 -29 -807 0
806 29 807 0
808 -31 -809 0
808 31 809 0
81 -82 -89 0
810 -33 -811 0
810 33 811 0
812 -35 -813 0
812 35 813 0
814 -37 -815 0
814 37 815 0
816 -14 -825 0
816 -817 -14 0
816 817 -825 0
817 -818 -791 0
818 -819 -789 0
819 -820 -787 0
82 -83 -89 0
820 -821 -785 0
821 -822 -783 0
822 -823 -781 0
823 -824 -779 0
824 -778 -13 0
824 778 13 0
825 -826 -834 0
825 -834 -793 0
825 826 -793 0
826 -827 -791 0
827 -828 -789 0
828 -829 -787 0
829 -830 -785 0
83 -84 -89 0
830 -831 -783 0
831 -832 -781 0
832 -777 -833 0
833 -780 -13 0
833 780 13 0
834 -835 -855 0
835 -836 -853 0
836 -837 -851 0
837 -838 -849 0
838 -839 -847 0
839 -840 -845 0
84 -85 -89 0
840 -841 -843 0
841 -22 -842 0
841 22 842 0
843 -25 -844 0
843 25 844 0
845 -27 -846 0
845 27 846 0
847 -29 -848 0
847 29 848 0
849 -31 -850 0
849 31 850 0
85 -86 -89 0
851 -33 -852 0
851 33 852 0
853 -35 -854 0
853 35 854 0
855 -37 -856 0
855 37 856 0
857 -43 -858 0
857 -858 -861 0
857 43 -861 0
858 -14 -859 0
858 -51 -14 0
858 51 -859 0
859 -53 -860 0
859 -860 -861 0
859 53 -861 0
86 -87 -89 0
860 -56 -861 0
860 -861 -884 0
860 56 -884 0
861 -862 -882 0
862 -863 -880 0
863 -864 -878 0
864 -865 -876 0
865 -866 -874 0
866 -867 -872 0
867 -868 -870 0
868 -22 -869 0
868 22 869 0
87 -88 -23 0
87 88 23 0
870 -25 -871 0
870 25 871 0
872 -27 -873 0
872 27 873 0
874 -29 -875 0
874 29 875 0
876 -31 -877 0
876 31 877 0
878 -33 -879 0
878 33 879 0
880 -35 -881 0
880 35 881 0
882 -37 -883 0
882 37 883 0
884 -106 -14 0
884 -14 -885 0
884 106 -885 0
885 -115 -886 0
885 -886 -861 0
885 115 -861 0
886 -217 -887 0
886 -887 -903 0
886 217 -903 0
887 -297 -888 0
887 -888 -861 0
887 297 -861 0
888 -889 -902 0
889 -890 -901 0
89 -23 -23 0
89 23 23 0
890 -891 -900 0
891 -892 -899 0
892 -893 -898 0
893 -894 -897 0
894 -895 -896 0
895 -22 -312 0
895 22 312 0
896 -25 -317 0
896 25 317 0
897 -27 -323 0
897 27 323 0
898 -29 -333 0
898 29 333 0
899 -31 -343 0
899 31 343 0
90 -91 -104 0
900 -33 -353 0
900 33 353 0
901 -35 -363 0
901 35 363 0
902 -37 -373 0
902 37 373 0
903 -297 -887 0
903 -887 -861 0
903 297 -861 0
91 -92 -103 0
92 -93 -102 0
93 -94 -101 0
94 -95 -100 0
95 -96 -99 0
96 -97 -98 0
97 -23 -64 0
97 23 64 0
98 -23 -66 0
98 23 66 0
99 -23 -68 0
99 23 68 0
